<number of tasks>
89

<cycle time>
75

<task times>
1 28
2 17
3 7
4 10
5 12
6 16
7 13
8 8
9 13
10 24
11 16
12 24
13 12
14 20
15 22
16 22
17 22
18 47
19 6
20 12
21 6
22 22
23 7
24 14
25 68
26 15
27 8
28 74
29 32
30 11
31 18
32 15
33 42
34 27
35 38
36 38
37 26
38 35
39 31
40 8
41 14
42 8
43 8
44 8
45 17
46 7
47 19
48 12
49 24
50 26
51 22
52 14
53 27
54 60
55 4
56 2
57 1
58 9
59 5
60 6
61 7
62 12
63 2
64 11
65 14
66 6
67 21
68 14
69 1
70 6
71 21
72 11
73 14
74 28
75 12
76 11
77 30
78 22
79 14
80 31
81 18
82 16
83 7
84 38
85 8
86 31
87 29
88 12
89 18

<precedence relations>
1,2
2,3
3,4
4,5
4,6
4,7
4,8
4,9
5,10
6,11
7,12
8,18
9,18
10,14
11,12
12,13
13,14
14,15
14,16
15,17
16,54
17,18
18,19
18,20
19,22
20,21
20,28
21,54
22,23
23,24
24,25
25,26
25,27
25,29
26,37
27,33
28,29
29,31
30,54
31,32
32,33
33,34
34,35
35,36
35,37
36,38
37,38
38,39
39,40
39,41
39,42
39,43
40,44
41,53
42,53
43,45
44,52
45,46
46,47
47,48
47,49
49,50
50,51
51,52
52,53
53,68
53,69
53,70
53,71
54,55
55,56
56,57
57,58
57,59
57,60
57,61
57,62
57,63
57,64
57,65
57,66
58,67
59,67
60,67
61,67
62,67
63,67
64,67
65,67
66,67
67,73
68,72
69,72
70,72
71,73
72,78
72,80
73,74
74,75
74,76
75,77
76,81
77,78
78,79
79,81
80,81
81,82
81,84
81,85
82,83
83,86
84,86
85,86
86,87
87,88
87,89

<setup times backward>
1,1:1
1,30:1
2,1:1
2,2:1
2,30:1
3,1:1
3,2:1
3,3:1
3,30:1
4,1:1
4,2:1
4,3:1
4,4:1
4,30:1
5,1:1
5,2:1
5,3:1
5,4:1
5,5:1
5,6:1
5,7:1
5,8:1
5,9:1
5,11:1
5,12:1
5,13:1
5,30:1
6,1:1
6,2:1
6,3:1
6,4:1
6,5:1
6,6:1
6,7:1
6,8:1
6,9:1
6,10:1
6,30:1
7,1:1
7,2:1
7,3:1
7,4:1
7,5:1
7,6:1
7,7:1
7,8:1
7,9:1
7,10:1
7,11:1
7,30:1
8,1:1
8,2:1
8,3:1
8,4:1
8,5:1
8,6:1
8,7:1
8,8:1
8,9:1
8,10:1
8,11:1
8,12:1
8,13:1
8,14:1
8,15:1
8,16:1
8,17:1
8,30:1
9,1:1
9,2:1
9,3:1
9,4:1
9,5:1
9,6:1
9,7:1
9,8:1
9,9:1
9,10:1
9,11:1
9,12:1
9,13:1
9,14:1
9,15:1
9,16:1
9,17:1
9,30:1
10,1:1
10,2:1
10,3:1
10,4:1
10,5:1
10,6:1
10,7:1
10,8:1
10,9:1
10,10:1
10,11:1
10,12:1
10,13:1
10,30:1
11,1:1
11,2:1
11,3:1
11,4:1
11,5:1
11,6:1
11,7:1
11,8:1
11,9:1
11,10:1
11,11:1
11,30:1
12,1:1
12,2:1
12,3:1
12,4:1
12,5:1
12,6:1
12,7:1
12,8:1
12,9:1
12,10:1
12,11:1
12,12:1
12,30:1
13,1:1
13,2:1
13,3:1
13,4:1
13,5:1
13,6:1
13,7:1
13,8:1
13,9:1
13,10:1
13,11:1
13,12:1
13,13:1
13,30:1
14,1:1
14,2:1
14,3:1
14,4:1
14,5:1
14,6:1
14,7:1
14,8:1
14,9:1
14,10:1
14,11:1
14,12:1
14,13:1
14,14:1
14,30:1
15,1:1
15,2:1
15,3:1
15,4:1
15,5:1
15,6:1
15,7:1
15,8:1
15,9:1
15,10:1
15,11:1
15,12:1
15,13:1
15,14:1
15,15:1
15,16:1
15,30:1
16,1:1
16,2:1
16,3:1
16,4:1
16,5:1
16,6:1
16,7:1
16,8:1
16,9:1
16,10:1
16,11:1
16,12:1
16,13:1
16,14:1
16,15:1
16,16:1
16,17:1
16,18:1
16,19:1
16,20:1
16,21:1
16,22:1
16,23:1
16,24:1
16,25:1
16,26:1
16,27:1
16,28:1
16,29:1
16,30:1
16,31:1
16,32:1
16,33:1
16,34:1
16,35:1
16,36:1
16,37:1
16,38:1
16,39:1
16,40:1
16,41:1
16,42:1
16,43:1
16,44:1
16,45:1
16,46:1
16,47:1
16,48:1
16,49:1
16,50:1
16,51:1
16,52:1
16,53:1
16,68:1
16,69:1
16,70:1
16,71:1
16,72:1
16,80:1
17,1:1
17,2:1
17,3:1
17,4:1
17,5:1
17,6:1
17,7:1
17,8:1
17,9:1
17,10:1
17,11:1
17,12:1
17,13:1
17,14:1
17,15:1
17,16:1
17,17:1
17,30:1
18,1:1
18,2:1
18,3:1
18,4:1
18,5:1
18,6:1
18,7:1
18,8:1
18,9:1
18,10:1
18,11:1
18,12:1
18,13:1
18,14:1
18,15:1
18,16:1
18,17:1
18,18:1
18,30:1
19,1:1
19,2:1
19,3:1
19,4:1
19,5:1
19,6:1
19,7:1
19,8:1
19,9:1
19,10:1
19,11:1
19,12:1
19,13:1
19,14:1
19,15:1
19,16:1
19,17:1
19,18:1
19,19:1
19,20:1
19,21:1
19,28:1
19,30:1
19,54:1
19,55:1
19,56:1
19,57:1
19,58:1
19,59:1
19,60:1
19,61:1
19,62:1
19,63:1
19,64:1
19,65:1
19,66:1
19,67:1
20,1:1
20,2:1
20,3:1
20,4:1
20,5:1
20,6:1
20,7:1
20,8:1
20,9:1
20,10:1
20,11:1
20,12:1
20,13:1
20,14:1
20,15:1
20,16:1
20,17:1
20,18:1
20,19:1
20,20:1
20,22:1
20,23:1
20,24:1
20,25:1
20,26:1
20,27:1
20,30:1
21,1:1
21,2:1
21,3:1
21,4:1
21,5:1
21,6:1
21,7:1
21,8:1
21,9:1
21,10:1
21,11:1
21,12:1
21,13:1
21,14:1
21,15:1
21,16:1
21,17:1
21,18:1
21,19:1
21,20:1
21,21:1
21,22:1
21,23:1
21,24:1
21,25:1
21,26:1
21,27:1
21,28:1
21,29:1
21,30:1
21,31:1
21,32:1
21,33:1
21,34:1
21,35:1
21,36:1
21,37:1
21,38:1
21,39:1
21,40:1
21,41:1
21,42:1
21,43:1
21,44:1
21,45:1
21,46:1
21,47:1
21,48:1
21,49:1
21,50:1
21,51:1
21,52:1
21,53:1
21,68:1
21,69:1
21,70:1
21,71:1
21,72:1
21,80:1
22,1:1
22,2:1
22,3:1
22,4:1
22,5:1
22,6:1
22,7:1
22,8:1
22,9:1
22,10:1
22,11:1
22,12:1
22,13:1
22,14:1
22,15:1
22,16:1
22,17:1
22,18:1
22,19:1
22,20:1
22,21:1
22,22:1
22,28:1
22,30:1
22,54:1
22,55:1
22,56:1
22,57:1
22,58:1
22,59:1
22,60:1
22,61:1
22,62:1
22,63:1
22,64:1
22,65:1
22,66:1
22,67:1
23,1:1
23,2:1
23,3:1
23,4:1
23,5:1
23,6:1
23,7:1
23,8:1
23,9:1
23,10:1
23,11:1
23,12:1
23,13:1
23,14:1
23,15:1
23,16:1
23,17:1
23,18:1
23,19:1
23,20:1
23,21:1
23,22:1
23,23:1
23,28:1
23,30:1
23,54:1
23,55:1
23,56:1
23,57:1
23,58:1
23,59:1
23,60:1
23,61:1
23,62:1
23,63:1
23,64:1
23,65:1
23,66:1
23,67:1
24,1:1
24,2:1
24,3:1
24,4:1
24,5:1
24,6:1
24,7:1
24,8:1
24,9:1
24,10:1
24,11:1
24,12:1
24,13:1
24,14:1
24,15:1
24,16:1
24,17:1
24,18:1
24,19:1
24,20:1
24,21:1
24,22:1
24,23:1
24,24:1
24,28:1
24,30:1
24,54:1
24,55:1
24,56:1
24,57:1
24,58:1
24,59:1
24,60:1
24,61:1
24,62:1
24,63:1
24,64:1
24,65:1
24,66:1
24,67:1
25,1:1
25,2:1
25,3:1
25,4:1
25,5:1
25,6:1
25,7:1
25,8:1
25,9:1
25,10:1
25,11:1
25,12:1
25,13:1
25,14:1
25,15:1
25,16:1
25,17:1
25,18:1
25,19:1
25,20:1
25,21:1
25,22:1
25,23:1
25,24:1
25,25:1
25,28:1
25,30:1
25,54:1
25,55:1
25,56:1
25,57:1
25,58:1
25,59:1
25,60:1
25,61:1
25,62:1
25,63:1
25,64:1
25,65:1
25,66:1
25,67:1
26,1:1
26,2:1
26,3:1
26,4:1
26,5:1
26,6:1
26,7:1
26,8:1
26,9:1
26,10:1
26,11:1
26,12:1
26,13:1
26,14:1
26,15:1
26,16:1
26,17:1
26,18:1
26,19:1
26,20:1
26,21:1
26,22:1
26,23:1
26,24:1
26,25:1
26,26:1
26,27:1
26,28:1
26,29:1
26,30:1
26,31:1
26,32:1
26,33:1
26,34:1
26,35:1
26,36:1
26,54:1
26,55:1
26,56:1
26,57:1
26,58:1
26,59:1
26,60:1
26,61:1
26,62:1
26,63:1
26,64:1
26,65:1
26,66:1
26,67:1
27,1:1
27,2:1
27,3:1
27,4:1
27,5:1
27,6:1
27,7:1
27,8:1
27,9:1
27,10:1
27,11:1
27,12:1
27,13:1
27,14:1
27,15:1
27,16:1
27,17:1
27,18:1
27,19:1
27,20:1
27,21:1
27,22:1
27,23:1
27,24:1
27,25:1
27,26:1
27,27:1
27,28:1
27,29:1
27,30:1
27,31:1
27,32:1
27,54:1
27,55:1
27,56:1
27,57:1
27,58:1
27,59:1
27,60:1
27,61:1
27,62:1
27,63:1
27,64:1
27,65:1
27,66:1
27,67:1
28,1:1
28,2:1
28,3:1
28,4:1
28,5:1
28,6:1
28,7:1
28,8:1
28,9:1
28,10:1
28,11:1
28,12:1
28,13:1
28,14:1
28,15:1
28,16:1
28,17:1
28,18:1
28,19:1
28,20:1
28,21:1
28,22:1
28,23:1
28,24:1
28,25:1
28,26:1
28,27:1
28,28:1
28,30:1
28,54:1
28,55:1
28,56:1
28,57:1
28,58:1
28,59:1
28,60:1
28,61:1
28,62:1
28,63:1
28,64:1
28,65:1
28,66:1
28,67:1
29,1:1
29,2:1
29,3:1
29,4:1
29,5:1
29,6:1
29,7:1
29,8:1
29,9:1
29,10:1
29,11:1
29,12:1
29,13:1
29,14:1
29,15:1
29,16:1
29,17:1
29,18:1
29,19:1
29,20:1
29,21:1
29,22:1
29,23:1
29,24:1
29,25:1
29,26:1
29,27:1
29,28:1
29,29:1
29,30:1
29,54:1
29,55:1
29,56:1
29,57:1
29,58:1
29,59:1
29,60:1
29,61:1
29,62:1
29,63:1
29,64:1
29,65:1
29,66:1
29,67:1
30,1:1
30,2:1
30,3:1
30,4:1
30,5:1
30,6:1
30,7:1
30,8:1
30,9:1
30,10:1
30,11:1
30,12:1
30,13:1
30,14:1
30,15:1
30,16:1
30,17:1
30,18:1
30,19:1
30,20:1
30,21:1
30,22:1
30,23:1
30,24:1
30,25:1
30,26:1
30,27:1
30,28:1
30,29:1
30,30:1
30,31:1
30,32:1
30,33:1
30,34:1
30,35:1
30,36:1
30,37:1
30,38:1
30,39:1
30,40:1
30,41:1
30,42:1
30,43:1
30,44:1
30,45:1
30,46:1
30,47:1
30,48:1
30,49:1
30,50:1
30,51:1
30,52:1
30,53:1
30,68:1
30,69:1
30,70:1
30,71:1
30,72:1
30,80:1
31,1:1
31,2:1
31,3:1
31,4:1
31,5:1
31,6:1
31,7:1
31,8:1
31,9:1
31,10:1
31,11:1
31,12:1
31,13:1
31,14:1
31,15:1
31,16:1
31,17:1
31,18:1
31,19:1
31,20:1
31,21:1
31,22:1
31,23:1
31,24:1
31,25:1
31,26:1
31,27:1
31,28:1
31,29:1
31,30:1
31,31:1
31,54:1
31,55:1
31,56:1
31,57:1
31,58:1
31,59:1
31,60:1
31,61:1
31,62:1
31,63:1
31,64:1
31,65:1
31,66:1
31,67:1
32,1:1
32,2:1
32,3:1
32,4:1
32,5:1
32,6:1
32,7:1
32,8:1
32,9:1
32,10:1
32,11:1
32,12:1
32,13:1
32,14:1
32,15:1
32,16:1
32,17:1
32,18:1
32,19:1
32,20:1
32,21:1
32,22:1
32,23:1
32,24:1
32,25:1
32,26:1
32,27:1
32,28:1
32,29:1
32,30:1
32,31:1
32,32:1
32,54:1
32,55:1
32,56:1
32,57:1
32,58:1
32,59:1
32,60:1
32,61:1
32,62:1
32,63:1
32,64:1
32,65:1
32,66:1
32,67:1
33,1:1
33,2:1
33,3:1
33,4:1
33,5:1
33,6:1
33,7:1
33,8:1
33,9:1
33,10:1
33,11:1
33,12:1
33,13:1
33,14:1
33,15:1
33,16:1
33,17:1
33,18:1
33,19:1
33,20:1
33,21:1
33,22:1
33,23:1
33,24:1
33,25:1
33,26:1
33,27:1
33,28:1
33,29:1
33,30:1
33,31:1
33,32:1
33,33:1
33,54:1
33,55:1
33,56:1
33,57:1
33,58:1
33,59:1
33,60:1
33,61:1
33,62:1
33,63:1
33,64:1
33,65:1
33,66:1
33,67:1
34,1:1
34,2:1
34,3:1
34,4:1
34,5:1
34,6:1
34,7:1
34,8:1
34,9:1
34,10:1
34,11:1
34,12:1
34,13:1
34,14:1
34,15:1
34,16:1
34,17:1
34,18:1
34,19:1
34,20:1
34,21:1
34,22:1
34,23:1
34,24:1
34,25:1
34,26:1
34,27:1
34,28:1
34,29:1
34,30:1
34,31:1
34,32:1
34,33:1
34,34:1
34,54:1
34,55:1
34,56:1
34,57:1
34,58:1
34,59:1
34,60:1
34,61:1
34,62:1
34,63:1
34,64:1
34,65:1
34,66:1
34,67:1
35,1:1
35,2:1
35,3:1
35,4:1
35,5:1
35,6:1
35,7:1
35,8:1
35,9:1
35,10:1
35,11:1
35,12:1
35,13:1
35,14:1
35,15:1
35,16:1
35,17:1
35,18:1
35,19:1
35,20:1
35,21:1
35,22:1
35,23:1
35,24:1
35,25:1
35,26:1
35,27:1
35,28:1
35,29:1
35,30:1
35,31:1
35,32:1
35,33:1
35,34:1
35,35:1
35,54:1
35,55:1
35,56:1
35,57:1
35,58:1
35,59:1
35,60:1
35,61:1
35,62:1
35,63:1
35,64:1
35,65:1
35,66:1
35,67:1
36,1:1
36,2:1
36,3:1
36,4:1
36,5:1
36,6:1
36,7:1
36,8:1
36,9:1
36,10:1
36,11:1
36,12:1
36,13:1
36,14:1
36,15:1
36,16:1
36,17:1
36,18:1
36,19:1
36,20:1
36,21:1
36,22:1
36,23:1
36,24:1
36,25:1
36,26:1
36,27:1
36,28:1
36,29:1
36,30:1
36,31:1
36,32:1
36,33:1
36,34:1
36,35:1
36,36:1
36,37:1
36,54:1
36,55:1
36,56:1
36,57:1
36,58:1
36,59:1
36,60:1
36,61:1
36,62:1
36,63:1
36,64:1
36,65:1
36,66:1
36,67:1
37,1:1
37,2:1
37,3:1
37,4:1
37,5:1
37,6:1
37,7:1
37,8:1
37,9:1
37,10:1
37,11:1
37,12:1
37,13:1
37,14:1
37,15:1
37,16:1
37,17:1
37,18:1
37,19:1
37,20:1
37,21:1
37,22:1
37,23:1
37,24:1
37,25:1
37,26:1
37,27:1
37,28:1
37,29:1
37,30:1
37,31:1
37,32:1
37,33:1
37,34:1
37,35:1
37,36:1
37,37:1
37,54:1
37,55:1
37,56:1
37,57:1
37,58:1
37,59:1
37,60:1
37,61:1
37,62:1
37,63:1
37,64:1
37,65:1
37,66:1
37,67:1
38,1:1
38,2:1
38,3:1
38,4:1
38,5:1
38,6:1
38,7:1
38,8:1
38,9:1
38,10:1
38,11:1
38,12:1
38,13:1
38,14:1
38,15:1
38,16:1
38,17:1
38,18:1
38,19:1
38,20:1
38,21:1
38,22:1
38,23:1
38,24:1
38,25:1
38,26:1
38,27:1
38,28:1
38,29:1
38,30:1
38,31:1
38,32:1
38,33:1
38,34:1
38,35:1
38,36:1
38,37:1
38,38:1
38,54:1
38,55:1
38,56:1
38,57:1
38,58:1
38,59:1
38,60:1
38,61:1
38,62:1
38,63:1
38,64:1
38,65:1
38,66:1
38,67:1
39,1:1
39,2:1
39,3:1
39,4:1
39,5:1
39,6:1
39,7:1
39,8:1
39,9:1
39,10:1
39,11:1
39,12:1
39,13:1
39,14:1
39,15:1
39,16:1
39,17:1
39,18:1
39,19:1
39,20:1
39,21:1
39,22:1
39,23:1
39,24:1
39,25:1
39,26:1
39,27:1
39,28:1
39,29:1
39,30:1
39,31:1
39,32:1
39,33:1
39,34:1
39,35:1
39,36:1
39,37:1
39,38:1
39,39:1
39,54:1
39,55:1
39,56:1
39,57:1
39,58:1
39,59:1
39,60:1
39,61:1
39,62:1
39,63:1
39,64:1
39,65:1
39,66:1
39,67:1
40,1:1
40,2:1
40,3:1
40,4:1
40,5:1
40,6:1
40,7:1
40,8:1
40,9:1
40,10:1
40,11:1
40,12:1
40,13:1
40,14:1
40,15:1
40,16:1
40,17:1
40,18:1
40,19:1
40,20:1
40,21:1
40,22:1
40,23:1
40,24:1
40,25:1
40,26:1
40,27:1
40,28:1
40,29:1
40,30:1
40,31:1
40,32:1
40,33:1
40,34:1
40,35:1
40,36:1
40,37:1
40,38:1
40,39:1
40,40:1
40,41:1
40,42:1
40,43:1
40,45:1
40,46:1
40,47:1
40,48:1
40,49:1
40,50:1
40,51:1
40,54:1
40,55:1
40,56:1
40,57:1
40,58:1
40,59:1
40,60:1
40,61:1
40,62:1
40,63:1
40,64:1
40,65:1
40,66:1
40,67:1
41,1:1
41,2:1
41,3:1
41,4:1
41,5:1
41,6:1
41,7:1
41,8:1
41,9:1
41,10:1
41,11:1
41,12:1
41,13:1
41,14:1
41,15:1
41,16:1
41,17:1
41,18:1
41,19:1
41,20:1
41,21:1
41,22:1
41,23:1
41,24:1
41,25:1
41,26:1
41,27:1
41,28:1
41,29:1
41,30:1
41,31:1
41,32:1
41,33:1
41,34:1
41,35:1
41,36:1
41,37:1
41,38:1
41,39:1
41,40:1
41,41:1
41,42:1
41,43:1
41,44:1
41,45:1
41,46:1
41,47:1
41,48:1
41,49:1
41,50:1
41,51:1
41,52:1
41,54:1
41,55:1
41,56:1
41,57:1
41,58:1
41,59:1
41,60:1
41,61:1
41,62:1
41,63:1
41,64:1
41,65:1
41,66:1
41,67:1
42,1:1
42,2:1
42,3:1
42,4:1
42,5:1
42,6:1
42,7:1
42,8:1
42,9:1
42,10:1
42,11:1
42,12:1
42,13:1
42,14:1
42,15:1
42,16:1
42,17:1
42,18:1
42,19:1
42,20:1
42,21:1
42,22:1
42,23:1
42,24:1
42,25:1
42,26:1
42,27:1
42,28:1
42,29:1
42,30:1
42,31:1
42,32:1
42,33:1
42,34:1
42,35:1
42,36:1
42,37:1
42,38:1
42,39:1
42,40:1
42,41:1
42,42:1
42,43:1
42,44:1
42,45:1
42,46:1
42,47:1
42,48:1
42,49:1
42,50:1
42,51:1
42,52:1
42,54:1
42,55:1
42,56:1
42,57:1
42,58:1
42,59:1
42,60:1
42,61:1
42,62:1
42,63:1
42,64:1
42,65:1
42,66:1
42,67:1
43,1:1
43,2:1
43,3:1
43,4:1
43,5:1
43,6:1
43,7:1
43,8:1
43,9:1
43,10:1
43,11:1
43,12:1
43,13:1
43,14:1
43,15:1
43,16:1
43,17:1
43,18:1
43,19:1
43,20:1
43,21:1
43,22:1
43,23:1
43,24:1
43,25:1
43,26:1
43,27:1
43,28:1
43,29:1
43,30:1
43,31:1
43,32:1
43,33:1
43,34:1
43,35:1
43,36:1
43,37:1
43,38:1
43,39:1
43,40:1
43,41:1
43,42:1
43,43:1
43,44:1
43,54:1
43,55:1
43,56:1
43,57:1
43,58:1
43,59:1
43,60:1
43,61:1
43,62:1
43,63:1
43,64:1
43,65:1
43,66:1
43,67:1
44,1:1
44,2:1
44,3:1
44,4:1
44,5:1
44,6:1
44,7:1
44,8:1
44,9:1
44,10:1
44,11:1
44,12:1
44,13:1
44,14:1
44,15:1
44,16:1
44,17:1
44,18:1
44,19:1
44,20:1
44,21:1
44,22:1
44,23:1
44,24:1
44,25:1
44,26:1
44,27:1
44,28:1
44,29:1
44,30:1
44,31:1
44,32:1
44,33:1
44,34:1
44,35:1
44,36:1
44,37:1
44,38:1
44,39:1
44,40:1
44,41:1
44,42:1
44,43:1
44,44:1
44,45:1
44,46:1
44,47:1
44,48:1
44,49:1
44,50:1
44,51:1
44,54:1
44,55:1
44,56:1
44,57:1
44,58:1
44,59:1
44,60:1
44,61:1
44,62:1
44,63:1
44,64:1
44,65:1
44,66:1
44,67:1
45,1:1
45,2:1
45,3:1
45,4:1
45,5:1
45,6:1
45,7:1
45,8:1
45,9:1
45,10:1
45,11:1
45,12:1
45,13:1
45,14:1
45,15:1
45,16:1
45,17:1
45,18:1
45,19:1
45,20:1
45,21:1
45,22:1
45,23:1
45,24:1
45,25:1
45,26:1
45,27:1
45,28:1
45,29:1
45,30:1
45,31:1
45,32:1
45,33:1
45,34:1
45,35:1
45,36:1
45,37:1
45,38:1
45,39:1
45,40:1
45,41:1
45,42:1
45,43:1
45,44:1
45,45:1
45,54:1
45,55:1
45,56:1
45,57:1
45,58:1
45,59:1
45,60:1
45,61:1
45,62:1
45,63:1
45,64:1
45,65:1
45,66:1
45,67:1
46,1:1
46,2:1
46,3:1
46,4:1
46,5:1
46,6:1
46,7:1
46,8:1
46,9:1
46,10:1
46,11:1
46,12:1
46,13:1
46,14:1
46,15:1
46,16:1
46,17:1
46,18:1
46,19:1
46,20:1
46,21:1
46,22:1
46,23:1
46,24:1
46,25:1
46,26:1
46,27:1
46,28:1
46,29:1
46,30:1
46,31:1
46,32:1
46,33:1
46,34:1
46,35:1
46,36:1
46,37:1
46,38:1
46,39:1
46,40:1
46,41:1
46,42:1
46,43:1
46,44:1
46,45:1
46,46:1
46,54:1
46,55:1
46,56:1
46,57:1
46,58:1
46,59:1
46,60:1
46,61:1
46,62:1
46,63:1
46,64:1
46,65:1
46,66:1
46,67:1
47,1:1
47,2:1
47,3:1
47,4:1
47,5:1
47,6:1
47,7:1
47,8:1
47,9:1
47,10:1
47,11:1
47,12:1
47,13:1
47,14:1
47,15:1
47,16:1
47,17:1
47,18:1
47,19:1
47,20:1
47,21:1
47,22:1
47,23:1
47,24:1
47,25:1
47,26:1
47,27:1
47,28:1
47,29:1
47,30:1
47,31:1
47,32:1
47,33:1
47,34:1
47,35:1
47,36:1
47,37:1
47,38:1
47,39:1
47,40:1
47,41:1
47,42:1
47,43:1
47,44:1
47,45:1
47,46:1
47,47:1
47,54:1
47,55:1
47,56:1
47,57:1
47,58:1
47,59:1
47,60:1
47,61:1
47,62:1
47,63:1
47,64:1
47,65:1
47,66:1
47,67:1
48,1:1
48,2:1
48,3:1
48,4:1
48,5:1
48,6:1
48,7:1
48,8:1
48,9:1
48,10:1
48,11:1
48,12:1
48,13:1
48,14:1
48,15:1
48,16:1
48,17:1
48,18:1
48,19:1
48,20:1
48,21:1
48,22:1
48,23:1
48,24:1
48,25:1
48,26:1
48,27:1
48,28:1
48,29:1
48,30:1
48,31:1
48,32:1
48,33:1
48,34:1
48,35:1
48,36:1
48,37:1
48,38:1
48,39:1
48,40:1
48,41:1
48,42:1
48,43:1
48,44:1
48,45:1
48,46:1
48,47:1
48,48:1
48,49:1
48,50:1
48,51:1
48,52:1
48,53:1
48,54:1
48,55:1
48,56:1
48,57:1
48,58:1
48,59:1
48,60:1
48,61:1
48,62:1
48,63:1
48,64:1
48,65:1
48,66:1
48,67:1
48,68:1
48,69:1
48,70:1
48,71:1
48,72:1
48,73:1
48,74:1
48,75:1
48,76:1
48,77:1
48,78:1
48,79:1
48,80:1
48,81:1
48,82:1
48,83:1
48,84:1
48,85:1
48,86:1
48,87:1
48,88:1
48,89:1
49,1:1
49,2:1
49,3:1
49,4:1
49,5:1
49,6:1
49,7:1
49,8:1
49,9:1
49,10:1
49,11:1
49,12:1
49,13:1
49,14:1
49,15:1
49,16:1
49,17:1
49,18:1
49,19:1
49,20:1
49,21:1
49,22:1
49,23:1
49,24:1
49,25:1
49,26:1
49,27:1
49,28:1
49,29:1
49,30:1
49,31:1
49,32:1
49,33:1
49,34:1
49,35:1
49,36:1
49,37:1
49,38:1
49,39:1
49,40:1
49,41:1
49,42:1
49,43:1
49,44:1
49,45:1
49,46:1
49,47:1
49,48:1
49,49:1
49,54:1
49,55:1
49,56:1
49,57:1
49,58:1
49,59:1
49,60:1
49,61:1
49,62:1
49,63:1
49,64:1
49,65:1
49,66:1
49,67:1
50,1:1
50,2:1
50,3:1
50,4:1
50,5:1
50,6:1
50,7:1
50,8:1
50,9:1
50,10:1
50,11:1
50,12:1
50,13:1
50,14:1
50,15:1
50,16:1
50,17:1
50,18:1
50,19:1
50,20:1
50,21:1
50,22:1
50,23:1
50,24:1
50,25:1
50,26:1
50,27:1
50,28:1
50,29:1
50,30:1
50,31:1
50,32:1
50,33:1
50,34:1
50,35:1
50,36:1
50,37:1
50,38:1
50,39:1
50,40:1
50,41:1
50,42:1
50,43:1
50,44:1
50,45:1
50,46:1
50,47:1
50,48:1
50,49:1
50,50:1
50,54:1
50,55:1
50,56:1
50,57:1
50,58:1
50,59:1
50,60:1
50,61:1
50,62:1
50,63:1
50,64:1
50,65:1
50,66:1
50,67:1
51,1:1
51,2:1
51,3:1
51,4:1
51,5:1
51,6:1
51,7:1
51,8:1
51,9:1
51,10:1
51,11:1
51,12:1
51,13:1
51,14:1
51,15:1
51,16:1
51,17:1
51,18:1
51,19:1
51,20:1
51,21:1
51,22:1
51,23:1
51,24:1
51,25:1
51,26:1
51,27:1
51,28:1
51,29:1
51,30:1
51,31:1
51,32:1
51,33:1
51,34:1
51,35:1
51,36:1
51,37:1
51,38:1
51,39:1
51,40:1
51,41:1
51,42:1
51,43:1
51,44:1
51,45:1
51,46:1
51,47:1
51,48:1
51,49:1
51,50:1
51,51:1
51,54:1
51,55:1
51,56:1
51,57:1
51,58:1
51,59:1
51,60:1
51,61:1
51,62:1
51,63:1
51,64:1
51,65:1
51,66:1
51,67:1
52,1:1
52,2:1
52,3:1
52,4:1
52,5:1
52,6:1
52,7:1
52,8:1
52,9:1
52,10:1
52,11:1
52,12:1
52,13:1
52,14:1
52,15:1
52,16:1
52,17:1
52,18:1
52,19:1
52,20:1
52,21:1
52,22:1
52,23:1
52,24:1
52,25:1
52,26:1
52,27:1
52,28:1
52,29:1
52,30:1
52,31:1
52,32:1
52,33:1
52,34:1
52,35:1
52,36:1
52,37:1
52,38:1
52,39:1
52,40:1
52,41:1
52,42:1
52,43:1
52,44:1
52,45:1
52,46:1
52,47:1
52,48:1
52,49:1
52,50:1
52,51:1
52,52:1
52,54:1
52,55:1
52,56:1
52,57:1
52,58:1
52,59:1
52,60:1
52,61:1
52,62:1
52,63:1
52,64:1
52,65:1
52,66:1
52,67:1
53,1:1
53,2:1
53,3:1
53,4:1
53,5:1
53,6:1
53,7:1
53,8:1
53,9:1
53,10:1
53,11:1
53,12:1
53,13:1
53,14:1
53,15:1
53,16:1
53,17:1
53,18:1
53,19:1
53,20:1
53,21:1
53,22:1
53,23:1
53,24:1
53,25:1
53,26:1
53,27:1
53,28:1
53,29:1
53,30:1
53,31:1
53,32:1
53,33:1
53,34:1
53,35:1
53,36:1
53,37:1
53,38:1
53,39:1
53,40:1
53,41:1
53,42:1
53,43:1
53,44:1
53,45:1
53,46:1
53,47:1
53,48:1
53,49:1
53,50:1
53,51:1
53,52:1
53,53:1
53,54:1
53,55:1
53,56:1
53,57:1
53,58:1
53,59:1
53,60:1
53,61:1
53,62:1
53,63:1
53,64:1
53,65:1
53,66:1
53,67:1
54,1:1
54,2:1
54,3:1
54,4:1
54,5:1
54,6:1
54,7:1
54,8:1
54,9:1
54,10:1
54,11:1
54,12:1
54,13:1
54,14:1
54,15:1
54,16:1
54,17:1
54,18:1
54,19:1
54,20:1
54,21:1
54,22:1
54,23:1
54,24:1
54,25:1
54,26:1
54,27:1
54,28:1
54,29:1
54,30:1
54,31:1
54,32:1
54,33:1
54,34:1
54,35:1
54,36:1
54,37:1
54,38:1
54,39:1
54,40:1
54,41:1
54,42:1
54,43:1
54,44:1
54,45:1
54,46:1
54,47:1
54,48:1
54,49:1
54,50:1
54,51:1
54,52:1
54,53:1
54,54:1
54,68:1
54,69:1
54,70:1
54,71:1
54,72:1
54,80:1
55,1:1
55,2:1
55,3:1
55,4:1
55,5:1
55,6:1
55,7:1
55,8:1
55,9:1
55,10:1
55,11:1
55,12:1
55,13:1
55,14:1
55,15:1
55,16:1
55,17:1
55,18:1
55,19:1
55,20:1
55,21:1
55,22:1
55,23:1
55,24:1
55,25:1
55,26:1
55,27:1
55,28:1
55,29:1
55,30:1
55,31:1
55,32:1
55,33:1
55,34:1
55,35:1
55,36:1
55,37:1
55,38:1
55,39:1
55,40:1
55,41:1
55,42:1
55,43:1
55,44:1
55,45:1
55,46:1
55,47:1
55,48:1
55,49:1
55,50:1
55,51:1
55,52:1
55,53:1
55,54:1
55,55:1
55,68:1
55,69:1
55,70:1
55,71:1
55,72:1
55,80:1
56,1:1
56,2:1
56,3:1
56,4:1
56,5:1
56,6:1
56,7:1
56,8:1
56,9:1
56,10:1
56,11:1
56,12:1
56,13:1
56,14:1
56,15:1
56,16:1
56,17:1
56,18:1
56,19:1
56,20:1
56,21:1
56,22:1
56,23:1
56,24:1
56,25:1
56,26:1
56,27:1
56,28:1
56,29:1
56,30:1
56,31:1
56,32:1
56,33:1
56,34:1
56,35:1
56,36:1
56,37:1
56,38:1
56,39:1
56,40:1
56,41:1
56,42:1
56,43:1
56,44:1
56,45:1
56,46:1
56,47:1
56,48:1
56,49:1
56,50:1
56,51:1
56,52:1
56,53:1
56,54:1
56,55:1
56,56:1
56,68:1
56,69:1
56,70:1
56,71:1
56,72:1
56,80:1
57,1:1
57,2:1
57,3:1
57,4:1
57,5:1
57,6:1
57,7:1
57,8:1
57,9:1
57,10:1
57,11:1
57,12:1
57,13:1
57,14:1
57,15:1
57,16:1
57,17:1
57,18:1
57,19:1
57,20:1
57,21:1
57,22:1
57,23:1
57,24:1
57,25:1
57,26:1
57,27:1
57,28:1
57,29:1
57,30:1
57,31:1
57,32:1
57,33:1
57,34:1
57,35:1
57,36:1
57,37:1
57,38:1
57,39:1
57,40:1
57,41:1
57,42:1
57,43:1
57,44:1
57,45:1
57,46:1
57,47:1
57,48:1
57,49:1
57,50:1
57,51:1
57,52:1
57,53:1
57,54:1
57,55:1
57,56:1
57,57:1
57,68:1
57,69:1
57,70:1
57,71:1
57,72:1
57,80:1
58,1:1
58,2:1
58,3:1
58,4:1
58,5:1
58,6:1
58,7:1
58,8:1
58,9:1
58,10:1
58,11:1
58,12:1
58,13:1
58,14:1
58,15:1
58,16:1
58,17:1
58,18:1
58,19:1
58,20:1
58,21:1
58,22:1
58,23:1
58,24:1
58,25:1
58,26:1
58,27:1
58,28:1
58,29:1
58,30:1
58,31:1
58,32:1
58,33:1
58,34:1
58,35:1
58,36:1
58,37:1
58,38:1
58,39:1
58,40:1
58,41:1
58,42:1
58,43:1
58,44:1
58,45:1
58,46:1
58,47:1
58,48:1
58,49:1
58,50:1
58,51:1
58,52:1
58,53:1
58,54:1
58,55:1
58,56:1
58,57:1
58,58:1
58,59:1
58,60:1
58,61:1
58,62:1
58,63:1
58,64:1
58,65:1
58,66:1
58,68:1
58,69:1
58,70:1
58,71:1
58,72:1
58,80:1
59,1:1
59,2:1
59,3:1
59,4:1
59,5:1
59,6:1
59,7:1
59,8:1
59,9:1
59,10:1
59,11:1
59,12:1
59,13:1
59,14:1
59,15:1
59,16:1
59,17:1
59,18:1
59,19:1
59,20:1
59,21:1
59,22:1
59,23:1
59,24:1
59,25:1
59,26:1
59,27:1
59,28:1
59,29:1
59,30:1
59,31:1
59,32:1
59,33:1
59,34:1
59,35:1
59,36:1
59,37:1
59,38:1
59,39:1
59,40:1
59,41:1
59,42:1
59,43:1
59,44:1
59,45:1
59,46:1
59,47:1
59,48:1
59,49:1
59,50:1
59,51:1
59,52:1
59,53:1
59,54:1
59,55:1
59,56:1
59,57:1
59,58:1
59,59:1
59,60:1
59,61:1
59,62:1
59,63:1
59,64:1
59,65:1
59,66:1
59,68:1
59,69:1
59,70:1
59,71:1
59,72:1
59,80:1
60,1:1
60,2:1
60,3:1
60,4:1
60,5:1
60,6:1
60,7:1
60,8:1
60,9:1
60,10:1
60,11:1
60,12:1
60,13:1
60,14:1
60,15:1
60,16:1
60,17:1
60,18:1
60,19:1
60,20:1
60,21:1
60,22:1
60,23:1
60,24:1
60,25:1
60,26:1
60,27:1
60,28:1
60,29:1
60,30:1
60,31:1
60,32:1
60,33:1
60,34:1
60,35:1
60,36:1
60,37:1
60,38:1
60,39:1
60,40:1
60,41:1
60,42:1
60,43:1
60,44:1
60,45:1
60,46:1
60,47:1
60,48:1
60,49:1
60,50:1
60,51:1
60,52:1
60,53:1
60,54:1
60,55:1
60,56:1
60,57:1
60,58:1
60,59:1
60,60:1
60,61:1
60,62:1
60,63:1
60,64:1
60,65:1
60,66:1
60,68:1
60,69:1
60,70:1
60,71:1
60,72:1
60,80:1
61,1:1
61,2:1
61,3:1
61,4:1
61,5:1
61,6:1
61,7:1
61,8:1
61,9:1
61,10:1
61,11:1
61,12:1
61,13:1
61,14:1
61,15:1
61,16:1
61,17:1
61,18:1
61,19:1
61,20:1
61,21:1
61,22:1
61,23:1
61,24:1
61,25:1
61,26:1
61,27:1
61,28:1
61,29:1
61,30:1
61,31:1
61,32:1
61,33:1
61,34:1
61,35:1
61,36:1
61,37:1
61,38:1
61,39:1
61,40:1
61,41:1
61,42:1
61,43:1
61,44:1
61,45:1
61,46:1
61,47:1
61,48:1
61,49:1
61,50:1
61,51:1
61,52:1
61,53:1
61,54:1
61,55:1
61,56:1
61,57:1
61,58:1
61,59:1
61,60:1
61,61:1
61,62:1
61,63:1
61,64:1
61,65:1
61,66:1
61,68:1
61,69:1
61,70:1
61,71:1
61,72:1
61,80:1
62,1:1
62,2:1
62,3:1
62,4:1
62,5:1
62,6:1
62,7:1
62,8:1
62,9:1
62,10:1
62,11:1
62,12:1
62,13:1
62,14:1
62,15:1
62,16:1
62,17:1
62,18:1
62,19:1
62,20:1
62,21:1
62,22:1
62,23:1
62,24:1
62,25:1
62,26:1
62,27:1
62,28:1
62,29:1
62,30:1
62,31:1
62,32:1
62,33:1
62,34:1
62,35:1
62,36:1
62,37:1
62,38:1
62,39:1
62,40:1
62,41:1
62,42:1
62,43:1
62,44:1
62,45:1
62,46:1
62,47:1
62,48:1
62,49:1
62,50:1
62,51:1
62,52:1
62,53:1
62,54:1
62,55:1
62,56:1
62,57:1
62,58:1
62,59:1
62,60:1
62,61:1
62,62:1
62,63:1
62,64:1
62,65:1
62,66:1
62,68:1
62,69:1
62,70:1
62,71:1
62,72:1
62,80:1
63,1:1
63,2:1
63,3:1
63,4:1
63,5:1
63,6:1
63,7:1
63,8:1
63,9:1
63,10:1
63,11:1
63,12:1
63,13:1
63,14:1
63,15:1
63,16:1
63,17:1
63,18:1
63,19:1
63,20:1
63,21:1
63,22:1
63,23:1
63,24:1
63,25:1
63,26:1
63,27:1
63,28:1
63,29:1
63,30:1
63,31:1
63,32:1
63,33:1
63,34:1
63,35:1
63,36:1
63,37:1
63,38:1
63,39:1
63,40:1
63,41:1
63,42:1
63,43:1
63,44:1
63,45:1
63,46:1
63,47:1
63,48:1
63,49:1
63,50:1
63,51:1
63,52:1
63,53:1
63,54:1
63,55:1
63,56:1
63,57:1
63,58:1
63,59:1
63,60:1
63,61:1
63,62:1
63,63:1
63,64:1
63,65:1
63,66:1
63,68:1
63,69:1
63,70:1
63,71:1
63,72:1
63,80:1
64,1:1
64,2:1
64,3:1
64,4:1
64,5:1
64,6:1
64,7:1
64,8:1
64,9:1
64,10:1
64,11:1
64,12:1
64,13:1
64,14:1
64,15:1
64,16:1
64,17:1
64,18:1
64,19:1
64,20:1
64,21:1
64,22:1
64,23:1
64,24:1
64,25:1
64,26:1
64,27:1
64,28:1
64,29:1
64,30:1
64,31:1
64,32:1
64,33:1
64,34:1
64,35:1
64,36:1
64,37:1
64,38:1
64,39:1
64,40:1
64,41:1
64,42:1
64,43:1
64,44:1
64,45:1
64,46:1
64,47:1
64,48:1
64,49:1
64,50:1
64,51:1
64,52:1
64,53:1
64,54:1
64,55:1
64,56:1
64,57:1
64,58:1
64,59:1
64,60:1
64,61:1
64,62:1
64,63:1
64,64:1
64,65:1
64,66:1
64,68:1
64,69:1
64,70:1
64,71:1
64,72:1
64,80:1
65,1:1
65,2:1
65,3:1
65,4:1
65,5:1
65,6:1
65,7:1
65,8:1
65,9:1
65,10:1
65,11:1
65,12:1
65,13:1
65,14:1
65,15:1
65,16:1
65,17:1
65,18:1
65,19:1
65,20:1
65,21:1
65,22:1
65,23:1
65,24:1
65,25:1
65,26:1
65,27:1
65,28:1
65,29:1
65,30:1
65,31:1
65,32:1
65,33:1
65,34:1
65,35:1
65,36:1
65,37:1
65,38:1
65,39:1
65,40:1
65,41:1
65,42:1
65,43:1
65,44:1
65,45:1
65,46:1
65,47:1
65,48:1
65,49:1
65,50:1
65,51:1
65,52:1
65,53:1
65,54:1
65,55:1
65,56:1
65,57:1
65,58:1
65,59:1
65,60:1
65,61:1
65,62:1
65,63:1
65,64:1
65,65:1
65,66:1
65,68:1
65,69:1
65,70:1
65,71:1
65,72:1
65,80:1
66,1:1
66,2:1
66,3:1
66,4:1
66,5:1
66,6:1
66,7:1
66,8:1
66,9:1
66,10:1
66,11:1
66,12:1
66,13:1
66,14:1
66,15:1
66,16:1
66,17:1
66,18:1
66,19:1
66,20:1
66,21:1
66,22:1
66,23:1
66,24:1
66,25:1
66,26:1
66,27:1
66,28:1
66,29:1
66,30:1
66,31:1
66,32:1
66,33:1
66,34:1
66,35:1
66,36:1
66,37:1
66,38:1
66,39:1
66,40:1
66,41:1
66,42:1
66,43:1
66,44:1
66,45:1
66,46:1
66,47:1
66,48:1
66,49:1
66,50:1
66,51:1
66,52:1
66,53:1
66,54:1
66,55:1
66,56:1
66,57:1
66,58:1
66,59:1
66,60:1
66,61:1
66,62:1
66,63:1
66,64:1
66,65:1
66,66:1
66,68:1
66,69:1
66,70:1
66,71:1
66,72:1
66,80:1
67,1:1
67,2:1
67,3:1
67,4:1
67,5:1
67,6:1
67,7:1
67,8:1
67,9:1
67,10:1
67,11:1
67,12:1
67,13:1
67,14:1
67,15:1
67,16:1
67,17:1
67,18:1
67,19:1
67,20:1
67,21:1
67,22:1
67,23:1
67,24:1
67,25:1
67,26:1
67,27:1
67,28:1
67,29:1
67,30:1
67,31:1
67,32:1
67,33:1
67,34:1
67,35:1
67,36:1
67,37:1
67,38:1
67,39:1
67,40:1
67,41:1
67,42:1
67,43:1
67,44:1
67,45:1
67,46:1
67,47:1
67,48:1
67,49:1
67,50:1
67,51:1
67,52:1
67,53:1
67,54:1
67,55:1
67,56:1
67,57:1
67,58:1
67,59:1
67,60:1
67,61:1
67,62:1
67,63:1
67,64:1
67,65:1
67,66:1
67,67:1
67,68:1
67,69:1
67,70:1
67,71:1
67,72:1
67,80:1
68,1:1
68,2:1
68,3:1
68,4:1
68,5:1
68,6:1
68,7:1
68,8:1
68,9:1
68,10:1
68,11:1
68,12:1
68,13:1
68,14:1
68,15:1
68,16:1
68,17:1
68,18:1
68,19:1
68,20:1
68,21:1
68,22:1
68,23:1
68,24:1
68,25:1
68,26:1
68,27:1
68,28:1
68,29:1
68,30:1
68,31:1
68,32:1
68,33:1
68,34:1
68,35:1
68,36:1
68,37:1
68,38:1
68,39:1
68,40:1
68,41:1
68,42:1
68,43:1
68,44:1
68,45:1
68,46:1
68,47:1
68,48:1
68,49:1
68,50:1
68,51:1
68,52:1
68,53:1
68,54:1
68,55:1
68,56:1
68,57:1
68,58:1
68,59:1
68,60:1
68,61:1
68,62:1
68,63:1
68,64:1
68,65:1
68,66:1
68,67:1
68,68:1
68,69:1
68,70:1
68,71:1
68,73:1
68,74:1
68,75:1
68,76:1
68,77:1
69,1:1
69,2:1
69,3:1
69,4:1
69,5:1
69,6:1
69,7:1
69,8:1
69,9:1
69,10:1
69,11:1
69,12:1
69,13:1
69,14:1
69,15:1
69,16:1
69,17:1
69,18:1
69,19:1
69,20:1
69,21:1
69,22:1
69,23:1
69,24:1
69,25:1
69,26:1
69,27:1
69,28:1
69,29:1
69,30:1
69,31:1
69,32:1
69,33:1
69,34:1
69,35:1
69,36:1
69,37:1
69,38:1
69,39:1
69,40:1
69,41:1
69,42:1
69,43:1
69,44:1
69,45:1
69,46:1
69,47:1
69,48:1
69,49:1
69,50:1
69,51:1
69,52:1
69,53:1
69,54:1
69,55:1
69,56:1
69,57:1
69,58:1
69,59:1
69,60:1
69,61:1
69,62:1
69,63:1
69,64:1
69,65:1
69,66:1
69,67:1
69,68:1
69,69:1
69,70:1
69,71:1
69,73:1
69,74:1
69,75:1
69,76:1
69,77:1
70,1:1
70,2:1
70,3:1
70,4:1
70,5:1
70,6:1
70,7:1
70,8:1
70,9:1
70,10:1
70,11:1
70,12:1
70,13:1
70,14:1
70,15:1
70,16:1
70,17:1
70,18:1
70,19:1
70,20:1
70,21:1
70,22:1
70,23:1
70,24:1
70,25:1
70,26:1
70,27:1
70,28:1
70,29:1
70,30:1
70,31:1
70,32:1
70,33:1
70,34:1
70,35:1
70,36:1
70,37:1
70,38:1
70,39:1
70,40:1
70,41:1
70,42:1
70,43:1
70,44:1
70,45:1
70,46:1
70,47:1
70,48:1
70,49:1
70,50:1
70,51:1
70,52:1
70,53:1
70,54:1
70,55:1
70,56:1
70,57:1
70,58:1
70,59:1
70,60:1
70,61:1
70,62:1
70,63:1
70,64:1
70,65:1
70,66:1
70,67:1
70,68:1
70,69:1
70,70:1
70,71:1
70,73:1
70,74:1
70,75:1
70,76:1
70,77:1
71,1:1
71,2:1
71,3:1
71,4:1
71,5:1
71,6:1
71,7:1
71,8:1
71,9:1
71,10:1
71,11:1
71,12:1
71,13:1
71,14:1
71,15:1
71,16:1
71,17:1
71,18:1
71,19:1
71,20:1
71,21:1
71,22:1
71,23:1
71,24:1
71,25:1
71,26:1
71,27:1
71,28:1
71,29:1
71,30:1
71,31:1
71,32:1
71,33:1
71,34:1
71,35:1
71,36:1
71,37:1
71,38:1
71,39:1
71,40:1
71,41:1
71,42:1
71,43:1
71,44:1
71,45:1
71,46:1
71,47:1
71,48:1
71,49:1
71,50:1
71,51:1
71,52:1
71,53:1
71,54:1
71,55:1
71,56:1
71,57:1
71,58:1
71,59:1
71,60:1
71,61:1
71,62:1
71,63:1
71,64:1
71,65:1
71,66:1
71,67:1
71,68:1
71,69:1
71,70:1
71,71:1
71,72:1
71,80:1
72,1:1
72,2:1
72,3:1
72,4:1
72,5:1
72,6:1
72,7:1
72,8:1
72,9:1
72,10:1
72,11:1
72,12:1
72,13:1
72,14:1
72,15:1
72,16:1
72,17:1
72,18:1
72,19:1
72,20:1
72,21:1
72,22:1
72,23:1
72,24:1
72,25:1
72,26:1
72,27:1
72,28:1
72,29:1
72,30:1
72,31:1
72,32:1
72,33:1
72,34:1
72,35:1
72,36:1
72,37:1
72,38:1
72,39:1
72,40:1
72,41:1
72,42:1
72,43:1
72,44:1
72,45:1
72,46:1
72,47:1
72,48:1
72,49:1
72,50:1
72,51:1
72,52:1
72,53:1
72,54:1
72,55:1
72,56:1
72,57:1
72,58:1
72,59:1
72,60:1
72,61:1
72,62:1
72,63:1
72,64:1
72,65:1
72,66:1
72,67:1
72,68:1
72,69:1
72,70:1
72,71:1
72,72:1
72,73:1
72,74:1
72,75:1
72,76:1
72,77:1
73,1:1
73,2:1
73,3:1
73,4:1
73,5:1
73,6:1
73,7:1
73,8:1
73,9:1
73,10:1
73,11:1
73,12:1
73,13:1
73,14:1
73,15:1
73,16:1
73,17:1
73,18:1
73,19:1
73,20:1
73,21:1
73,22:1
73,23:1
73,24:1
73,25:1
73,26:1
73,27:1
73,28:1
73,29:1
73,30:1
73,31:1
73,32:1
73,33:1
73,34:1
73,35:1
73,36:1
73,37:1
73,38:1
73,39:1
73,40:1
73,41:1
73,42:1
73,43:1
73,44:1
73,45:1
73,46:1
73,47:1
73,48:1
73,49:1
73,50:1
73,51:1
73,52:1
73,53:1
73,54:1
73,55:1
73,56:1
73,57:1
73,58:1
73,59:1
73,60:1
73,61:1
73,62:1
73,63:1
73,64:1
73,65:1
73,66:1
73,67:1
73,68:1
73,69:1
73,70:1
73,71:1
73,72:1
73,73:1
73,80:1
74,1:1
74,2:1
74,3:1
74,4:1
74,5:1
74,6:1
74,7:1
74,8:1
74,9:1
74,10:1
74,11:1
74,12:1
74,13:1
74,14:1
74,15:1
74,16:1
74,17:1
74,18:1
74,19:1
74,20:1
74,21:1
74,22:1
74,23:1
74,24:1
74,25:1
74,26:1
74,27:1
74,28:1
74,29:1
74,30:1
74,31:1
74,32:1
74,33:1
74,34:1
74,35:1
74,36:1
74,37:1
74,38:1
74,39:1
74,40:1
74,41:1
74,42:1
74,43:1
74,44:1
74,45:1
74,46:1
74,47:1
74,48:1
74,49:1
74,50:1
74,51:1
74,52:1
74,53:1
74,54:1
74,55:1
74,56:1
74,57:1
74,58:1
74,59:1
74,60:1
74,61:1
74,62:1
74,63:1
74,64:1
74,65:1
74,66:1
74,67:1
74,68:1
74,69:1
74,70:1
74,71:1
74,72:1
74,73:1
74,74:1
74,80:1
75,1:1
75,2:1
75,3:1
75,4:1
75,5:1
75,6:1
75,7:1
75,8:1
75,9:1
75,10:1
75,11:1
75,12:1
75,13:1
75,14:1
75,15:1
75,16:1
75,17:1
75,18:1
75,19:1
75,20:1
75,21:1
75,22:1
75,23:1
75,24:1
75,25:1
75,26:1
75,27:1
75,28:1
75,29:1
75,30:1
75,31:1
75,32:1
75,33:1
75,34:1
75,35:1
75,36:1
75,37:1
75,38:1
75,39:1
75,40:1
75,41:1
75,42:1
75,43:1
75,44:1
75,45:1
75,46:1
75,47:1
75,48:1
75,49:1
75,50:1
75,51:1
75,52:1
75,53:1
75,54:1
75,55:1
75,56:1
75,57:1
75,58:1
75,59:1
75,60:1
75,61:1
75,62:1
75,63:1
75,64:1
75,65:1
75,66:1
75,67:1
75,68:1
75,69:1
75,70:1
75,71:1
75,72:1
75,73:1
75,74:1
75,75:1
75,76:1
75,80:1
76,1:1
76,2:1
76,3:1
76,4:1
76,5:1
76,6:1
76,7:1
76,8:1
76,9:1
76,10:1
76,11:1
76,12:1
76,13:1
76,14:1
76,15:1
76,16:1
76,17:1
76,18:1
76,19:1
76,20:1
76,21:1
76,22:1
76,23:1
76,24:1
76,25:1
76,26:1
76,27:1
76,28:1
76,29:1
76,30:1
76,31:1
76,32:1
76,33:1
76,34:1
76,35:1
76,36:1
76,37:1
76,38:1
76,39:1
76,40:1
76,41:1
76,42:1
76,43:1
76,44:1
76,45:1
76,46:1
76,47:1
76,48:1
76,49:1
76,50:1
76,51:1
76,52:1
76,53:1
76,54:1
76,55:1
76,56:1
76,57:1
76,58:1
76,59:1
76,60:1
76,61:1
76,62:1
76,63:1
76,64:1
76,65:1
76,66:1
76,67:1
76,68:1
76,69:1
76,70:1
76,71:1
76,72:1
76,73:1
76,74:1
76,75:1
76,76:1
76,77:1
76,78:1
76,79:1
76,80:1
77,1:1
77,2:1
77,3:1
77,4:1
77,5:1
77,6:1
77,7:1
77,8:1
77,9:1
77,10:1
77,11:1
77,12:1
77,13:1
77,14:1
77,15:1
77,16:1
77,17:1
77,18:1
77,19:1
77,20:1
77,21:1
77,22:1
77,23:1
77,24:1
77,25:1
77,26:1
77,27:1
77,28:1
77,29:1
77,30:1
77,31:1
77,32:1
77,33:1
77,34:1
77,35:1
77,36:1
77,37:1
77,38:1
77,39:1
77,40:1
77,41:1
77,42:1
77,43:1
77,44:1
77,45:1
77,46:1
77,47:1
77,48:1
77,49:1
77,50:1
77,51:1
77,52:1
77,53:1
77,54:1
77,55:1
77,56:1
77,57:1
77,58:1
77,59:1
77,60:1
77,61:1
77,62:1
77,63:1
77,64:1
77,65:1
77,66:1
77,67:1
77,68:1
77,69:1
77,70:1
77,71:1
77,72:1
77,73:1
77,74:1
77,75:1
77,76:1
77,77:1
77,80:1
78,1:1
78,2:1
78,3:1
78,4:1
78,5:1
78,6:1
78,7:1
78,8:1
78,9:1
78,10:1
78,11:1
78,12:1
78,13:1
78,14:1
78,15:1
78,16:1
78,17:1
78,18:1
78,19:1
78,20:1
78,21:1
78,22:1
78,23:1
78,24:1
78,25:1
78,26:1
78,27:1
78,28:1
78,29:1
78,30:1
78,31:1
78,32:1
78,33:1
78,34:1
78,35:1
78,36:1
78,37:1
78,38:1
78,39:1
78,40:1
78,41:1
78,42:1
78,43:1
78,44:1
78,45:1
78,46:1
78,47:1
78,48:1
78,49:1
78,50:1
78,51:1
78,52:1
78,53:1
78,54:1
78,55:1
78,56:1
78,57:1
78,58:1
78,59:1
78,60:1
78,61:1
78,62:1
78,63:1
78,64:1
78,65:1
78,66:1
78,67:1
78,68:1
78,69:1
78,70:1
78,71:1
78,72:1
78,73:1
78,74:1
78,75:1
78,76:1
78,77:1
78,78:1
78,80:1
79,1:1
79,2:1
79,3:1
79,4:1
79,5:1
79,6:1
79,7:1
79,8:1
79,9:1
79,10:1
79,11:1
79,12:1
79,13:1
79,14:1
79,15:1
79,16:1
79,17:1
79,18:1
79,19:1
79,20:1
79,21:1
79,22:1
79,23:1
79,24:1
79,25:1
79,26:1
79,27:1
79,28:1
79,29:1
79,30:1
79,31:1
79,32:1
79,33:1
79,34:1
79,35:1
79,36:1
79,37:1
79,38:1
79,39:1
79,40:1
79,41:1
79,42:1
79,43:1
79,44:1
79,45:1
79,46:1
79,47:1
79,48:1
79,49:1
79,50:1
79,51:1
79,52:1
79,53:1
79,54:1
79,55:1
79,56:1
79,57:1
79,58:1
79,59:1
79,60:1
79,61:1
79,62:1
79,63:1
79,64:1
79,65:1
79,66:1
79,67:1
79,68:1
79,69:1
79,70:1
79,71:1
79,72:1
79,73:1
79,74:1
79,75:1
79,76:1
79,77:1
79,78:1
79,79:1
79,80:1
80,1:1
80,2:1
80,3:1
80,4:1
80,5:1
80,6:1
80,7:1
80,8:1
80,9:1
80,10:1
80,11:1
80,12:1
80,13:1
80,14:1
80,15:1
80,16:1
80,17:1
80,18:1
80,19:1
80,20:1
80,21:1
80,22:1
80,23:1
80,24:1
80,25:1
80,26:1
80,27:1
80,28:1
80,29:1
80,30:1
80,31:1
80,32:1
80,33:1
80,34:1
80,35:1
80,36:1
80,37:1
80,38:1
80,39:1
80,40:1
80,41:1
80,42:1
80,43:1
80,44:1
80,45:1
80,46:1
80,47:1
80,48:1
80,49:1
80,50:1
80,51:1
80,52:1
80,53:1
80,54:1
80,55:1
80,56:1
80,57:1
80,58:1
80,59:1
80,60:1
80,61:1
80,62:1
80,63:1
80,64:1
80,65:1
80,66:1
80,67:1
80,68:1
80,69:1
80,70:1
80,71:1
80,72:1
80,73:1
80,74:1
80,75:1
80,76:1
80,77:1
80,78:1
80,79:1
80,80:1
81,1:1
81,2:1
81,3:1
81,4:1
81,5:1
81,6:1
81,7:1
81,8:1
81,9:1
81,10:1
81,11:1
81,12:1
81,13:1
81,14:1
81,15:1
81,16:1
81,17:1
81,18:1
81,19:1
81,20:1
81,21:1
81,22:1
81,23:1
81,24:1
81,25:1
81,26:1
81,27:1
81,28:1
81,29:1
81,30:1
81,31:1
81,32:1
81,33:1
81,34:1
81,35:1
81,36:1
81,37:1
81,38:1
81,39:1
81,40:1
81,41:1
81,42:1
81,43:1
81,44:1
81,45:1
81,46:1
81,47:1
81,48:1
81,49:1
81,50:1
81,51:1
81,52:1
81,53:1
81,54:1
81,55:1
81,56:1
81,57:1
81,58:1
81,59:1
81,60:1
81,61:1
81,62:1
81,63:1
81,64:1
81,65:1
81,66:1
81,67:1
81,68:1
81,69:1
81,70:1
81,71:1
81,72:1
81,73:1
81,74:1
81,75:1
81,76:1
81,77:1
81,78:1
81,79:1
81,80:1
81,81:1
82,1:1
82,2:1
82,3:1
82,4:1
82,5:1
82,6:1
82,7:1
82,8:1
82,9:1
82,10:1
82,11:1
82,12:1
82,13:1
82,14:1
82,15:1
82,16:1
82,17:1
82,18:1
82,19:1
82,20:1
82,21:1
82,22:1
82,23:1
82,24:1
82,25:1
82,26:1
82,27:1
82,28:1
82,29:1
82,30:1
82,31:1
82,32:1
82,33:1
82,34:1
82,35:1
82,36:1
82,37:1
82,38:1
82,39:1
82,40:1
82,41:1
82,42:1
82,43:1
82,44:1
82,45:1
82,46:1
82,47:1
82,48:1
82,49:1
82,50:1
82,51:1
82,52:1
82,53:1
82,54:1
82,55:1
82,56:1
82,57:1
82,58:1
82,59:1
82,60:1
82,61:1
82,62:1
82,63:1
82,64:1
82,65:1
82,66:1
82,67:1
82,68:1
82,69:1
82,70:1
82,71:1
82,72:1
82,73:1
82,74:1
82,75:1
82,76:1
82,77:1
82,78:1
82,79:1
82,80:1
82,81:1
82,82:1
82,84:1
82,85:1
83,1:1
83,2:1
83,3:1
83,4:1
83,5:1
83,6:1
83,7:1
83,8:1
83,9:1
83,10:1
83,11:1
83,12:1
83,13:1
83,14:1
83,15:1
83,16:1
83,17:1
83,18:1
83,19:1
83,20:1
83,21:1
83,22:1
83,23:1
83,24:1
83,25:1
83,26:1
83,27:1
83,28:1
83,29:1
83,30:1
83,31:1
83,32:1
83,33:1
83,34:1
83,35:1
83,36:1
83,37:1
83,38:1
83,39:1
83,40:1
83,41:1
83,42:1
83,43:1
83,44:1
83,45:1
83,46:1
83,47:1
83,48:1
83,49:1
83,50:1
83,51:1
83,52:1
83,53:1
83,54:1
83,55:1
83,56:1
83,57:1
83,58:1
83,59:1
83,60:1
83,61:1
83,62:1
83,63:1
83,64:1
83,65:1
83,66:1
83,67:1
83,68:1
83,69:1
83,70:1
83,71:1
83,72:1
83,73:1
83,74:1
83,75:1
83,76:1
83,77:1
83,78:1
83,79:1
83,80:1
83,81:1
83,82:1
83,83:1
83,84:1
83,85:1
84,1:1
84,2:1
84,3:1
84,4:1
84,5:1
84,6:1
84,7:1
84,8:1
84,9:1
84,10:1
84,11:1
84,12:1
84,13:1
84,14:1
84,15:1
84,16:1
84,17:1
84,18:1
84,19:1
84,20:1
84,21:1
84,22:1
84,23:1
84,24:1
84,25:1
84,26:1
84,27:1
84,28:1
84,29:1
84,30:1
84,31:1
84,32:1
84,33:1
84,34:1
84,35:1
84,36:1
84,37:1
84,38:1
84,39:1
84,40:1
84,41:1
84,42:1
84,43:1
84,44:1
84,45:1
84,46:1
84,47:1
84,48:1
84,49:1
84,50:1
84,51:1
84,52:1
84,53:1
84,54:1
84,55:1
84,56:1
84,57:1
84,58:1
84,59:1
84,60:1
84,61:1
84,62:1
84,63:1
84,64:1
84,65:1
84,66:1
84,67:1
84,68:1
84,69:1
84,70:1
84,71:1
84,72:1
84,73:1
84,74:1
84,75:1
84,76:1
84,77:1
84,78:1
84,79:1
84,80:1
84,81:1
84,82:1
84,83:1
84,84:1
84,85:1
85,1:1
85,2:1
85,3:1
85,4:1
85,5:1
85,6:1
85,7:1
85,8:1
85,9:1
85,10:1
85,11:1
85,12:1
85,13:1
85,14:1
85,15:1
85,16:1
85,17:1
85,18:1
85,19:1
85,20:1
85,21:1
85,22:1
85,23:1
85,24:1
85,25:1
85,26:1
85,27:1
85,28:1
85,29:1
85,30:1
85,31:1
85,32:1
85,33:1
85,34:1
85,35:1
85,36:1
85,37:1
85,38:1
85,39:1
85,40:1
85,41:1
85,42:1
85,43:1
85,44:1
85,45:1
85,46:1
85,47:1
85,48:1
85,49:1
85,50:1
85,51:1
85,52:1
85,53:1
85,54:1
85,55:1
85,56:1
85,57:1
85,58:1
85,59:1
85,60:1
85,61:1
85,62:1
85,63:1
85,64:1
85,65:1
85,66:1
85,67:1
85,68:1
85,69:1
85,70:1
85,71:1
85,72:1
85,73:1
85,74:1
85,75:1
85,76:1
85,77:1
85,78:1
85,79:1
85,80:1
85,81:1
85,82:1
85,83:1
85,84:1
85,85:1
86,1:1
86,2:1
86,3:1
86,4:1
86,5:1
86,6:1
86,7:1
86,8:1
86,9:1
86,10:1
86,11:1
86,12:1
86,13:1
86,14:1
86,15:1
86,16:1
86,17:1
86,18:1
86,19:1
86,20:1
86,21:1
86,22:1
86,23:1
86,24:1
86,25:1
86,26:1
86,27:1
86,28:1
86,29:1
86,30:1
86,31:1
86,32:1
86,33:1
86,34:1
86,35:1
86,36:1
86,37:1
86,38:1
86,39:1
86,40:1
86,41:1
86,42:1
86,43:1
86,44:1
86,45:1
86,46:1
86,47:1
86,48:1
86,49:1
86,50:1
86,51:1
86,52:1
86,53:1
86,54:1
86,55:1
86,56:1
86,57:1
86,58:1
86,59:1
86,60:1
86,61:1
86,62:1
86,63:1
86,64:1
86,65:1
86,66:1
86,67:1
86,68:1
86,69:1
86,70:1
86,71:1
86,72:1
86,73:1
86,74:1
86,75:1
86,76:1
86,77:1
86,78:1
86,79:1
86,80:1
86,81:1
86,82:1
86,83:1
86,84:1
86,85:1
86,86:1
87,1:1
87,2:1
87,3:1
87,4:1
87,5:1
87,6:1
87,7:1
87,8:1
87,9:1
87,10:1
87,11:1
87,12:1
87,13:1
87,14:1
87,15:1
87,16:1
87,17:1
87,18:1
87,19:1
87,20:1
87,21:1
87,22:1
87,23:1
87,24:1
87,25:1
87,26:1
87,27:1
87,28:1
87,29:1
87,30:1
87,31:1
87,32:1
87,33:1
87,34:1
87,35:1
87,36:1
87,37:1
87,38:1
87,39:1
87,40:1
87,41:1
87,42:1
87,43:1
87,44:1
87,45:1
87,46:1
87,47:1
87,48:1
87,49:1
87,50:1
87,51:1
87,52:1
87,53:1
87,54:1
87,55:1
87,56:1
87,57:1
87,58:1
87,59:1
87,60:1
87,61:1
87,62:1
87,63:1
87,64:1
87,65:1
87,66:1
87,67:1
87,68:1
87,69:1
87,70:1
87,71:1
87,72:1
87,73:1
87,74:1
87,75:1
87,76:1
87,77:1
87,78:1
87,79:1
87,80:1
87,81:1
87,82:1
87,83:1
87,84:1
87,85:1
87,86:1
87,87:1
88,1:1
88,2:1
88,3:1
88,4:1
88,5:1
88,6:1
88,7:1
88,8:1
88,9:1
88,10:1
88,11:1
88,12:1
88,13:1
88,14:1
88,15:1
88,16:1
88,17:1
88,18:1
88,19:1
88,20:1
88,21:1
88,22:1
88,23:1
88,24:1
88,25:1
88,26:1
88,27:1
88,28:1
88,29:1
88,30:1
88,31:1
88,32:1
88,33:1
88,34:1
88,35:1
88,36:1
88,37:1
88,38:1
88,39:1
88,40:1
88,41:1
88,42:1
88,43:1
88,44:1
88,45:1
88,46:1
88,47:1
88,48:1
88,49:1
88,50:1
88,51:1
88,52:1
88,53:1
88,54:1
88,55:1
88,56:1
88,57:1
88,58:1
88,59:1
88,60:1
88,61:1
88,62:1
88,63:1
88,64:1
88,65:1
88,66:1
88,67:1
88,68:1
88,69:1
88,70:1
88,71:1
88,72:1
88,73:1
88,74:1
88,75:1
88,76:1
88,77:1
88,78:1
88,79:1
88,80:1
88,81:1
88,82:1
88,83:1
88,84:1
88,85:1
88,86:1
88,87:1
88,88:1
88,89:1
89,1:1
89,2:1
89,3:1
89,4:1
89,5:1
89,6:1
89,7:1
89,8:1
89,9:1
89,10:1
89,11:1
89,12:1
89,13:1
89,14:1
89,15:1
89,16:1
89,17:1
89,18:1
89,19:1
89,20:1
89,21:1
89,22:1
89,23:1
89,24:1
89,25:1
89,26:1
89,27:1
89,28:1
89,29:1
89,30:1
89,31:1
89,32:1
89,33:1
89,34:1
89,35:1
89,36:1
89,37:1
89,38:1
89,39:1
89,40:1
89,41:1
89,42:1
89,43:1
89,44:1
89,45:1
89,46:1
89,47:1
89,48:1
89,49:1
89,50:1
89,51:1
89,52:1
89,53:1
89,54:1
89,55:1
89,56:1
89,57:1
89,58:1
89,59:1
89,60:1
89,61:1
89,62:1
89,63:1
89,64:1
89,65:1
89,66:1
89,67:1
89,68:1
89,69:1
89,70:1
89,71:1
89,72:1
89,73:1
89,74:1
89,75:1
89,76:1
89,77:1
89,78:1
89,79:1
89,80:1
89,81:1
89,82:1
89,83:1
89,84:1
89,85:1
89,86:1
89,87:1
89,88:1
89,89:1

<end>

<optimal SALBP-1 value>
23


<rand seed>
467321153

<Lower Bounds>
Lm1=22
Lms1=22
Lm2=8
Lm3=12
Lm4=23
Best=23

<Optimal Stations (Iterations: 10)>
25
